100
128
1
41
43
9
26
41
16
32
40
63
37
57
40
45
61
36
45
15
62
16
13
28
10
33
4
38
62
12
51
20
56
37
28
15
13
10
52
51
50
39
30
10
11
12
50
38
32
2
23
26
2
30
33
17
39
35
27
48
53
10
10
21
1
39
20
1
57
12
19
15
22
27
14
2
16
44
49
24
14
10
28
43
10
57
11
40
37
12
3
23
45
50
58
46
17
14
22
20
52
54